c FILE /home/rafael/Documents/HappySet/MIHS/inputs/happygen/output/graph_d_regular_k5_p0.1_v50_20241127_082623.txt
c SOURCE This is a d-regular graph formed for the happy graph colouring problem.
c DESCRIPTION It was generated using the problem generator of Rhyd Lewis
c
c GRAPH STATS
c Seed                             = -981214965
c Number of Nodes                  = 50
c Number of colours k              = 5
c Number of pre-assignments        = 5
c Degree of all vertices           = 6
c Density                          = 0.122449
c 
c The degrees of nodes 1 to 50, respectively, are as follows 
c [6, 6, 6, 6, 6, 6, 6, 6, 6, 6, 6, 6, 6, 6, 6, 6, 6, 6, 6, 6, 6, 6, 6, 6, 6, 6, 
c  6, 6, 6, 6, 6, 6, 6, 6, 6, 6, 6, 6, 6, 6, 6, 6, 6, 6, 6, 6, 6, 6, 6, 6] 
c  
p edge 50 150 5
e 1 7
e 1 18
e 1 20
e 1 24
e 1 39
e 1 48
e 2 8
e 2 12
e 2 34
e 2 36
e 2 37
e 2 44
e 3 8
e 3 18
e 3 21
e 3 25
e 3 31
e 3 36
e 4 7
e 4 17
e 4 19
e 4 29
e 4 33
e 4 40
e 5 6
e 5 11
e 5 12
e 5 27
e 5 46
e 5 48
e 6 19
e 6 21
e 6 22
e 6 38
e 6 45
e 7 10
e 7 12
e 7 32
e 7 47
e 8 12
e 8 20
e 8 28
e 8 43
e 9 15
e 9 17
e 9 30
e 9 32
e 9 34
e 9 38
e 10 21
e 10 23
e 10 24
e 10 30
e 10 41
e 11 22
e 11 31
e 11 32
e 11 49
e 11 50
e 12 26
e 12 29
e 13 16
e 13 23
e 13 27
e 13 32
e 13 35
e 13 44
e 14 21
e 14 25
e 14 29
e 14 34
e 14 43
e 14 50
e 15 17
e 15 37
e 15 38
e 15 44
e 15 48
e 16 23
e 16 24
e 16 25
e 16 33
e 16 46
e 17 30
e 17 44
e 17 46
e 18 26
e 18 35
e 18 43
e 18 49
e 19 26
e 19 29
e 19 35
e 19 40
e 20 27
e 20 31
e 20 41
e 20 48
e 21 45
e 21 46
e 22 27
e 22 42
e 22 44
e 22 45
e 23 31
e 23 38
e 23 48
e 24 43
e 24 45
e 24 50
e 25 37
e 25 41
e 25 47
e 26 28
e 26 29
e 26 45
e 27 39
e 27 42
e 28 33
e 28 39
e 28 49
e 28 50
e 29 30
e 30 34
e 30 47
e 31 36
e 31 45
e 32 35
e 32 47
e 33 34
e 33 35
e 33 49
e 34 42
e 35 41
e 36 39
e 36 40
e 36 48
e 37 42
e 37 49
e 37 50
e 38 41
e 38 47
e 39 43
e 39 50
e 40 43
e 40 46
e 40 49
e 41 47
e 42 44
e 42 46
n 2 3
n 6 4
n 9 1
n 13 2
n 41 5
